
Gurobi 9.5.2 (mac64[arm]) logging started Wed Apr 19 20:25:30 2023

Set parameter LogFile to value "Java/output/iterative_model/scenario_seed_0_nJob_50_machineCount_1/mip_increment_1/log.txt"
Gurobi Optimizer version 9.5.2 build v9.5.2rc0 (mac64[arm])
Thread count: 8 physical cores, 8 logical processors, using up to 8 threads
Optimize a model with 3018 rows, 25864 columns and 341724 nonzeros
Model fingerprint: 0x1c17e9a2
Variable types: 0 continuous, 25864 integer (25864 binary)
Coefficient statistics:
  Matrix range     [1e+00, 5e+02]
  Objective range  [6e+01, 2e+07]
  Bounds range     [1e+00, 1e+00]
  RHS range        [1e+00, 1e+00]
Presolve removed 120 rows and 1628 columns
Presolve time: 0.33s
Presolved: 2898 rows, 24236 columns, 313592 nonzeros
Variable types: 0 continuous, 24236 integer (24220 binary)

Root relaxation: objective 1.812255e+04, 9517 iterations, 0.93 seconds (2.52 work units)

    Nodes    |    Current Node    |     Objective Bounds      |     Work
 Expl Unexpl |  Obj  Depth IntInf | Incumbent    BestBd   Gap | It/Node Time

     0     0 18122.5473    0  168          - 18122.5473      -     -    1s
     0     0 18152.7445    0  268          - 18152.7445      -     -    2s
     0     0 18152.7446    0  268          - 18152.7446      -     -    2s
     0     0 18159.3815    0  308          - 18159.3815      -     -    3s
     0     0 18159.4437    0  331          - 18159.4437      -     -    3s
     0     0 18159.5207    0  350          - 18159.5207      -     -    3s
     0     0 18159.5214    0  351          - 18159.5214      -     -    3s
     0     0 18162.5501    0  401          - 18162.5501      -     -    4s
     0     0 18164.5232    0  364          - 18164.5232      -     -    4s
     0     0 18164.6397    0  385          - 18164.6397      -     -    4s
     0     0 18164.6444    0  396          - 18164.6444      -     -    4s
     0     0 18167.7251    0  420          - 18167.7251      -     -    5s
H    0     0                    19056.000000 18167.7251  4.66%     -   10s
     0     0 18168.0525    0  419 19056.0000 18168.0525  4.66%     -   10s
     0     0 18168.0815    0  421 19056.0000 18168.0815  4.66%     -   10s
     0     0 18168.0829    0  424 19056.0000 18168.0829  4.66%     -   10s
     0     0 18183.2858    0  435 19056.0000 18183.2858  4.58%     -   10s
     0     0 18183.2858    0  170 19056.0000 18183.2858  4.58%     -   11s
     0     0 18183.2858    0  369 19056.0000 18183.2858  4.58%     -   12s
     0     0 18185.8849    0  390 19056.0000 18185.8849  4.57%     -   12s
     0     0 18188.9784    0  431 19056.0000 18188.9784  4.55%     -   12s
     0     0 18189.1436    0  439 19056.0000 18189.1436  4.55%     -   12s
     0     0 18189.2432    0  443 19056.0000 18189.2432  4.55%     -   12s
     0     0 18189.2462    0  444 19056.0000 18189.2462  4.55%     -   12s
     0     0 18209.9960    0  498 19056.0000 18209.9960  4.44%     -   13s
     0     0 18213.2249    0  511 19056.0000 18213.2249  4.42%     -   13s
     0     0 18213.8194    0  461 19056.0000 18213.8194  4.42%     -   13s
     0     0 18213.9233    0  476 19056.0000 18213.9233  4.42%     -   13s
     0     0 18213.9313    0  478 19056.0000 18213.9313  4.42%     -   13s
     0     0 18223.4039    0  494 19056.0000 18223.4039  4.37%     -   14s
     0     0 18227.2876    0  505 19056.0000 18227.2876  4.35%     -   14s
     0     0 18227.6731    0  524 19056.0000 18227.6731  4.35%     -   14s
     0     0 18227.7363    0  529 19056.0000 18227.7363  4.35%     -   14s
     0     0 18227.7368    0  531 19056.0000 18227.7368  4.35%     -   14s
     0     0 18243.7506    0  572 19056.0000 18243.7506  4.26%     -   15s
     0     0 18246.4507    0  592 19056.0000 18246.4507  4.25%     -   15s
     0     0 18246.7486    0  580 19056.0000 18246.7486  4.25%     -   15s
     0     0 18246.8229    0  583 19056.0000 18246.8229  4.25%     -   15s
H    0     0                    19024.000000 18246.8229  4.09%     -   16s
     0     0 18273.0815    0  582 19024.0000 18273.0815  3.95%     -   16s
     0     0 18282.1039    0  606 19024.0000 18282.1039  3.90%     -   16s
     0     0 18284.7414    0  607 19024.0000 18284.7414  3.89%     -   16s
     0     0 18285.1062    0  605 19024.0000 18285.1062  3.88%     -   16s
     0     0 18285.1983    0  613 19024.0000 18285.1983  3.88%     -   16s
     0     0 18295.5774    0  645 19024.0000 18295.5774  3.83%     -   17s
     0     0 18299.1445    0  659 19024.0000 18299.1445  3.81%     -   17s
     0     0 18299.7497    0  669 19024.0000 18299.7497  3.81%     -   17s
     0     0 18299.8876    0  681 19024.0000 18299.8876  3.81%     -   17s
     0     0 18316.6010    0  670 19024.0000 18316.6010  3.72%     -   18s
     0     0 18322.1426    0  685 19024.0000 18322.1426  3.69%     -   18s
     0     0 18325.5956    0  684 19024.0000 18325.5956  3.67%     -   19s
     0     0 18326.8696    0  687 19024.0000 18326.8696  3.66%     -   19s
     0     0 18327.1506    0  704 19024.0000 18327.1506  3.66%     -   19s
     0     0 18327.1745    0  713 19024.0000 18327.1745  3.66%     -   19s
     0     0 18334.5890    0  729 19024.0000 18334.5890  3.62%     -   20s
H    0     0                    19008.000000 18334.5890  3.54%     -   20s
     0     0 18336.5975    0  720 19008.0000 18336.5975  3.53%     -   20s
     0     0 18337.0544    0  743 19008.0000 18337.0544  3.53%     -   20s
     0     0 18337.1427    0  749 19008.0000 18337.1427  3.53%     -   20s
     0     0 18344.8176    0  742 19008.0000 18344.8176  3.49%     -   21s
H    0     0                    18992.000000 18344.8176  3.41%     -   21s
     0     0 18346.2610    0  743 18992.0000 18346.2610  3.40%     -   21s
     0     0 18347.9584    0  760 18992.0000 18347.9584  3.39%     -   21s
     0     0 18348.5428    0  765 18992.0000 18348.5428  3.39%     -   21s
     0     0 18348.7149    0  771 18992.0000 18348.7149  3.39%     -   22s
     0     0 18353.6106    0  797 18992.0000 18353.6106  3.36%     -   22s
     0     0 18355.2819    0  815 18992.0000 18355.2819  3.35%     -   22s
     0     0 18355.9027    0  819 18992.0000 18355.9027  3.35%     -   23s
     0     0 18356.1364    0  831 18992.0000 18356.1364  3.35%     -   23s
     0     0 18360.0825    0  807 18992.0000 18360.0825  3.33%     -   23s
     0     0 18362.0156    0  823 18992.0000 18362.0156  3.32%     -   24s
     0     0 18362.6144    0  835 18992.0000 18362.6144  3.31%     -   24s
     0     0 18362.9876    0  839 18992.0000 18362.9876  3.31%     -   24s
     0     0 18363.0044    0  842 18992.0000 18363.0044  3.31%     -   24s
     0     0 18364.5397    0  835 18992.0000 18364.5397  3.30%     -   25s
     0     0 18365.0528    0  846 18992.0000 18365.0528  3.30%     -   25s
     0     0 18365.2470    0  847 18992.0000 18365.2470  3.30%     -   25s
     0     0 18368.1148    0  843 18992.0000 18368.1148  3.28%     -   26s
     0     0 18368.8884    0  844 18992.0000 18368.8884  3.28%     -   26s
     0     0 18369.2174    0  855 18992.0000 18369.2174  3.28%     -   26s
     0     0 18372.3836    0  872 18992.0000 18372.3836  3.26%     -   27s
     0     0 18373.4881    0  893 18992.0000 18373.4881  3.26%     -   27s
     0     0 18373.9663    0  896 18992.0000 18373.9663  3.25%     -   27s
     0     0 18374.0660    0  901 18992.0000 18374.0660  3.25%     -   28s
     0     0 18377.2336    0  877 18992.0000 18377.2336  3.24%     -   28s
H    0     0                    18976.000000 18377.2336  3.16%     -   29s
     0     0 18378.7033    0  895 18976.0000 18378.7033  3.15%     -   29s
     0     0 18379.3728    0  909 18976.0000 18379.3728  3.14%     -   29s
     0     0 18379.6812    0  905 18976.0000 18379.6812  3.14%     -   29s
     0     0 18382.3005    0  914 18976.0000 18382.3005  3.13%     -   30s
     0     0 18383.6859    0  911 18976.0000 18383.6859  3.12%     -   30s
     0     0 18384.2794    0  908 18976.0000 18384.2794  3.12%     -   31s
     0     0 18384.4082    0  911 18976.0000 18384.4082  3.12%     -   31s
     0     0 18386.1841    0  905 18976.0000 18386.1841  3.11%     -   31s
     0     0 18386.1841    0  905 18976.0000 18386.1841  3.11%     -   32s
     0     2 18386.2957    0  902 18976.0000 18386.2957  3.11%     -   34s
     1     4 18386.2957    1  901 18976.0000 18386.2957  3.11%   8.0   35s
    15    24 18394.3002    4  899 18976.0000 18389.0122  3.09%  3269   40s
    39    48 18401.5063    6  896 18976.0000 18394.3016  3.07%  2475   45s
    56    65 18401.9966    7  889 18976.0000 18394.3016  3.07%  2471   51s
    75    88 18404.3717    8  870 18976.0000 18394.3016  3.07%  2623   55s
   111   119 18415.0103   11  852 18976.0000 18394.3016  3.07%  2474   60s
   149   148 18431.2701   14  803 18976.0000 18394.3016  3.07%  2535   65s
   188   188 18455.1302   17  800 18976.0000 18394.3016  3.07%  2602   70s
   221   206 18473.9061   19  762 18976.0000 18394.3016  3.07%  2651   76s
H  226   206                    18944.000000 18394.3016  2.90%  2632   76s
H  267   243                    18912.000000 18394.3016  2.74%  2570   82s
   297   263 18497.0006   23  722 18912.0000 18394.3016  2.74%  2497   87s
   323   279 18497.8049   24  725 18912.0000 18394.3016  2.74%  2467   90s
   364   307 18692.9853   27  591 18912.0000 18394.3016  2.74%  2424   99s
   387   336 18500.5399   27  727 18912.0000 18394.3016  2.74%  2418  100s
   448   374 18508.8827   32  696 18912.0000 18394.3016  2.74%  2360  109s
   456   404 18567.4001   33  629 18912.0000 18394.3016  2.74%  2358  113s
   500   432 18521.2082   34  684 18912.0000 18394.3016  2.74%  2320  115s
   582   491 18597.6571   38  634 18912.0000 18394.3016  2.74%  2222  122s
   677   537 18620.0038   43  670 18912.0000 18394.3016  2.74%  2138  127s
   731   560 18650.9046   49  605 18912.0000 18394.3016  2.74%  2078  130s
   815   618 18708.8121   55  569 18912.0000 18394.3016  2.74%  2041  137s
   859   635 18718.7569   57  563 18912.0000 18394.3016  2.74%  2048  140s
   949   681     cutoff   61      18912.0000 18397.4526  2.72%  2026  148s
   994   722 18464.3350    6  784 18912.0000 18397.4526  2.72%  2034  152s
  1035   774 18490.4829    7  761 18912.0000 18397.4526  2.72%  2035  156s
  1103   812 18502.6948    8  774 18912.0000 18397.4526  2.72%  2008  160s
  1207   890 18633.1757   12  774 18912.0000 18397.4526  2.72%  2014  168s
  1267   923 18530.6029   13  687 18912.0000 18397.4526  2.72%  2012  172s
  1342   936     cutoff   13      18912.0000 18397.4526  2.72%  1982  180s
  1361   981 18637.7092   17  599 18912.0000 18397.4526  2.72%  1987  185s
  1430  1017 18642.1425   18  611 18912.0000 18397.4526  2.72%  1986  191s
  1519  1018 18559.8032   19  435 18912.0000 18397.4526  2.72%  1965  199s

Cutting planes:
  Gomory: 1
  Cover: 8
  Projected implied bound: 1
  Clique: 45
  MIR: 36
  StrongCG: 17
  Flow cover: 7
  GUB cover: 46
  Zero half: 20
  RLT: 6
  Relax-and-lift: 5

Explored 1521 nodes (3113800 simplex iterations) in 200.01 seconds (684.14 work units)
Thread count was 8 (of 8 available processors)

Solution count 7: 18912 18944 18976 ... 19056

Time limit reached
Best objective 1.891200000000e+04, best bound 1.840000000000e+04, gap 2.7073%

Gurobi 9.5.2 (mac64[arm]) logging started Wed Apr 19 20:28:50 2023

Set parameter LogFile to value "Java/output/iterative_model/scenario_seed_0_nJob_50_machineCount_1/mip_increment_1/log.txt"
Gurobi Optimizer version 9.5.2 build v9.5.2rc0 (mac64[arm])
Thread count: 8 physical cores, 8 logical processors, using up to 8 threads
Optimize a model with 3004 rows, 17340 columns and 205229 nonzeros
Model fingerprint: 0x3b0365ba
Variable types: 0 continuous, 17340 integer (17340 binary)
Coefficient statistics:
  Matrix range     [1e+00, 5e+02]
  Objective range  [4e+02, 3e+06]
  Bounds range     [1e+00, 1e+00]
  RHS range        [1e+00, 1e+00]
Found heuristic solution: objective 2.054288e+07
Presolve removed 710 rows and 805 columns
Presolve time: 0.22s
Presolved: 2294 rows, 16535 columns, 194486 nonzeros
Variable types: 0 continuous, 16535 integer (16531 binary)
Found heuristic solution: objective 1.896408e+07

Root relaxation: objective 1.066271e+04, 2767 iterations, 0.16 seconds (0.40 work units)

    Nodes    |    Current Node    |     Objective Bounds      |     Work
 Expl Unexpl |  Obj  Depth IntInf | Incumbent    BestBd   Gap | It/Node Time

     0     0 10662.7138    0   84 1.8964e+07 10662.7138   100%     -    0s
H    0     0                    7279532.0000 10662.7138   100%     -    0s
H    0     0                    5597136.0000 10662.7138   100%     -    0s
H    0     0                    2995620.0000 10662.7138   100%     -    0s
H    0     0                    1296120.0000 10662.7138  99.2%     -    0s
H    0     0                    494552.00000 10675.0323  97.8%     -    0s
H    0     0                    494536.00000 10675.0323  97.8%     -    0s
     0     0 10675.0323    0  192 494536.000 10675.0323  97.8%     -    0s
H    0     0                    224684.00000 10675.0323  95.2%     -    0s
H    0     0                    25836.000000 10675.0323  58.7%     -    1s
     0     0 10681.8606    0  205 25836.0000 10681.8606  58.7%     -    1s
H    0     0                    15272.000000 10681.8606  30.1%     -    1s
     0     0 10681.8606    0   83 15272.0000 10681.8606  30.1%     -    1s
H    0     0                    13816.000000 10681.8606  22.7%     -    1s
H    0     0                    13788.000000 10681.8606  22.5%     -    1s
     0     0 10681.8606    0  201 13788.0000 10681.8606  22.5%     -    1s
     0     0 10684.7130    0  187 13788.0000 10684.7130  22.5%     -    1s
     0     0 10685.0454    0  191 13788.0000 10685.0454  22.5%     -    1s
     0     0 10685.0587    0  190 13788.0000 10685.0587  22.5%     -    1s
     0     0 10690.7114    0  234 13788.0000 10690.7114  22.5%     -    2s
     0     0 10691.3183    0  215 13788.0000 10691.3183  22.5%     -    2s
     0     0 10691.6135    0  216 13788.0000 10691.6135  22.5%     -    2s
     0     0 10691.6826    0  216 13788.0000 10691.6826  22.5%     -    2s
H    0     0                    13664.000000 10691.6826  21.8%     -    2s
     0     0 10703.7879    0  274 13664.0000 10703.7879  21.7%     -    2s
H    0     0                    12092.000000 10703.7879  11.5%     -    2s
H    0     0                    10932.000000 10703.7879  2.09%     -    2s
     0     0 10709.5467    0  268 10932.0000 10709.5467  2.03%     -    2s
     0     0 10709.9421    0  291 10932.0000 10709.9421  2.03%     -    2s
     0     0 10710.0529    0  292 10932.0000 10710.0529  2.03%     -    2s
     0     0 10710.0659    0  283 10932.0000 10710.0659  2.03%     -    2s
     0     0 10721.9085    0  318 10932.0000 10721.9085  1.92%     -    3s
     0     0 10726.7714    0  319 10932.0000 10726.7714  1.88%     -    3s
     0     0 10727.4245    0  329 10932.0000 10727.4245  1.87%     -    3s
     0     0 10727.4522    0  338 10932.0000 10727.4522  1.87%     -    3s
     0     0 10729.3588    0  323 10932.0000 10729.3588  1.85%     -    3s
     0     0 10729.5001    0  338 10932.0000 10729.5001  1.85%     -    3s
     0     0 10729.6078    0  339 10932.0000 10729.6078  1.85%     -    3s
     0     0 10729.6876    0  357 10932.0000 10729.6876  1.85%     -    3s
     0     0 10729.6989    0  360 10932.0000 10729.6989  1.85%     -    3s
     0     0 10730.3863    0  371 10932.0000 10730.3863  1.84%     -    3s
     0     0 10730.6200    0  379 10932.0000 10730.6200  1.84%     -    3s
     0     0 10730.7031    0  385 10932.0000 10730.7031  1.84%     -    3s
     0     0 10730.7077    0  393 10932.0000 10730.7077  1.84%     -    3s
     0     0 10731.3334    0  386 10932.0000 10731.3334  1.84%     -    3s
     0     0 10731.6512    0  390 10932.0000 10731.6512  1.83%     -    3s
     0     0 10731.7682    0  395 10932.0000 10731.7682  1.83%     -    3s
     0     0 10731.8106    0  396 10932.0000 10731.8106  1.83%     -    3s
     0     0 10733.3577    0  363 10932.0000 10733.3577  1.82%     -    3s
     0     0 10734.3527    0  381 10932.0000 10734.3527  1.81%     -    3s
     0     0 10734.4258    0  388 10932.0000 10734.4258  1.81%     -    4s
     0     0 10734.4852    0  396 10932.0000 10734.4852  1.81%     -    4s
     0     0 10734.4852    0  394 10932.0000 10734.4852  1.81%     -    4s
     0     0 10737.2194    0  338 10932.0000 10737.2194  1.78%     -    4s
     0     0 10737.4270    0  354 10932.0000 10737.4270  1.78%     -    4s
     0     0 10737.5323    0  369 10932.0000 10737.5323  1.78%     -    4s
     0     0 10737.5454    0  377 10932.0000 10737.5454  1.78%     -    4s
     0     0 10739.0014    0  353 10932.0000 10739.0014  1.77%     -    4s
     0     0 10739.7400    0  359 10932.0000 10739.7400  1.76%     -    4s
     0     0 10739.8429    0  369 10932.0000 10739.8429  1.76%     -    4s
     0     0 10739.8533    0  381 10932.0000 10739.8533  1.76%     -    4s
     0     0 10741.0554    0  372 10932.0000 10741.0554  1.75%     -    4s
H    0     0                    10928.000000 10741.0554  1.71%     -    4s
     0     0 10741.2072    0  388 10928.0000 10741.2072  1.71%     -    4s
     0     0 10741.2545    0  377 10928.0000 10741.2545  1.71%     -    4s
     0     0 10741.7503    0  377 10928.0000 10741.7503  1.70%     -    4s
     0     0 10741.7945    0  397 10928.0000 10741.7945  1.70%     -    4s
H    0     0                    10924.000000 10741.7945  1.67%     -    4s
     0     0 10742.0834    0  392 10924.0000 10742.0834  1.67%     -    4s
     0     0 10742.0834    0  362 10924.0000 10742.0834  1.67%     -    5s
     0     0 10742.1511    0  155 10924.0000 10742.1511  1.66%     -    5s
     0     0 10742.1511    0  234 10924.0000 10742.1511  1.66%     -    5s
     0     0 10742.1511    0  264 10924.0000 10742.1511  1.66%     -    6s
     0     0 10742.1511    0  291 10924.0000 10742.1511  1.66%     -    6s
     0     0 10742.3080    0  330 10924.0000 10742.3080  1.66%     -    6s
     0     0 10743.1328    0  343 10924.0000 10743.1328  1.66%     -    6s
     0     0 10743.3442    0  330 10924.0000 10743.3442  1.65%     -    6s
     0     0 10743.4459    0  323 10924.0000 10743.4459  1.65%     -    6s
     0     0 10743.4558    0  324 10924.0000 10743.4558  1.65%     -    6s
     0     0 10744.5820    0  348 10924.0000 10744.5820  1.64%     -    6s
     0     0 10745.7334    0  354 10924.0000 10745.7334  1.63%     -    6s
     0     0 10746.0386    0  362 10924.0000 10746.0386  1.63%     -    6s
     0     0 10746.0443    0  364 10924.0000 10746.0443  1.63%     -    6s
     0     0 10751.1742    0  365 10924.0000 10751.1742  1.58%     -    6s
     0     0 10752.8344    0  369 10924.0000 10752.8344  1.57%     -    6s
     0     0 10753.1733    0  367 10924.0000 10753.1733  1.56%     -    6s
     0     0 10753.4721    0  378 10924.0000 10753.4721  1.56%     -    6s
     0     0 10753.5082    0  382 10924.0000 10753.5082  1.56%     -    6s
     0     0 10756.4381    0  389 10924.0000 10756.4381  1.53%     -    7s
H    0     0                    10920.000000 10756.4381  1.50%     -    7s
     0     0 10757.5237    0  407 10920.0000 10757.5237  1.49%     -    7s
     0     0 10757.6331    0  408 10920.0000 10757.6331  1.49%     -    7s
     0     0 10757.6541    0  401 10920.0000 10757.6541  1.49%     -    7s
     0     0 10758.3358    0  393 10920.0000 10758.3358  1.48%     -    7s
H    0     0                    10912.000000 10758.3358  1.41%     -    7s
     0     0 10758.5067    0  392 10912.0000 10758.5067  1.41%     -    7s
     0     0 10758.5111    0  396 10912.0000 10758.5111  1.41%     -    7s
     0     0 10759.0801    0  395 10912.0000 10759.0801  1.40%     -    7s
     0     0 10759.2933    0  415 10912.0000 10759.2933  1.40%     -    7s
     0     0 10759.4143    0  416 10912.0000 10759.4143  1.40%     -    7s
     0     0 10759.4397    0  424 10912.0000 10759.4397  1.40%     -    7s
     0     0 10759.6141    0  426 10912.0000 10759.6141  1.40%     -    7s
     0     0 10759.6141    0  410 10912.0000 10759.6141  1.40%     -    7s
     0     2 10759.7171    0  401 10912.0000 10759.7171  1.40%     -    8s
    47    47 10786.2615    6  202 10912.0000 10770.1989  1.30%   989   10s
   802   552 10848.4474   17  161 10912.0000 10779.2332  1.22%   331   15s
* 1094   600              35    10892.000000 10780.8666  1.02%   328   16s
  1489   777 10793.8099   13  332 10892.0000 10786.5240  0.97%   323   20s
  1511   801 10786.5240   16  305 10892.0000 10786.5240  0.97%   332   25s
  1765   911 10874.0857   36  132 10892.0000 10786.5240  0.97%   380   30s
  2484  1013 10857.9095   26  234 10892.0000 10786.5240  0.97%   368   35s
  3193  1052 10816.5923   24  382 10892.0000 10796.5335  0.88%   370   40s
  3832  1078 10815.2403   21  364 10892.0000 10800.4871  0.84%   382   45s
  4456  1302     cutoff   25      10892.0000 10803.9041  0.81%   388   50s
  5465  1692 10843.5000   28  251 10892.0000 10810.8381  0.75%   383   55s
  6267  1909     cutoff   25      10892.0000 10813.3512  0.72%   391   60s
  7266  2309 10846.3193   33  209 10892.0000 10816.6628  0.69%   388   66s
  8067  2533     cutoff   29      10892.0000 10819.2889  0.67%   383   71s
  8995  2826 10853.2569   25  268 10892.0000 10823.0036  0.63%   380   75s
 10205  3084     cutoff   27      10892.0000 10825.2152  0.61%   374   81s
 11409  3341 10889.9380   33   89 10892.0000 10827.6190  0.59%   374   87s
 12131  3581     cutoff   32      10892.0000 10828.9520  0.58%   374   91s
 13111  3756     cutoff   33      10892.0000 10830.8269  0.56%   375   96s
 14178  3865 10854.3015   35  128 10892.0000 10832.0350  0.55%   374  103s
 14199  4005 10874.5336   37  132 10892.0000 10832.3383  0.55%   375  106s
 15828  4275 10861.8558   34  214 10892.0000 10835.4317  0.52%   367  111s
 17209  4441 10877.4864   32  191 10892.0000 10837.9863  0.50%   361  116s
 18538  4657 10889.3700   24  246 10892.0000 10839.7766  0.48%   356  121s
 19921  4806 10854.9092   25  323 10892.0000 10842.1078  0.46%   354  127s
 20673  4875 10886.6118   30  264 10892.0000 10843.1606  0.45%   354  130s
 22436  5011 10862.6979   27  265 10892.0000 10846.4120  0.42%   350  136s
 24330  5099     cutoff   31      10892.0000 10848.6192  0.40%   345  142s
 25245  5151 10871.9533   28  237 10892.0000 10850.0328  0.39%   343  145s
*26173  4182              34    10880.000000 10851.1236  0.27%   342  148s
 27063  3979     cutoff   28      10880.0000 10852.4683  0.25%   341  151s
 28874  3551     cutoff   33      10880.0000 10856.1880  0.22%   337  157s
 29781  3221     cutoff   32      10880.0000 10857.7005  0.20%   336  160s
 31982  2305     cutoff   25      10880.0000 10862.5342  0.16%   329  166s
 34167  1059     cutoff   43      10880.0000 10869.7447  0.09%   320  170s

Cutting planes:
  Gomory: 2
  Cover: 150
  Clique: 184
  MIR: 268
  StrongCG: 185
  Flow cover: 55
  GUB cover: 91
  Inf proof: 4
  Zero half: 34
  Mod-K: 1
  RLT: 17

Explored 35866 nodes (11179835 simplex iterations) in 171.94 seconds (585.52 work units)
Thread count was 8 (of 8 available processors)

Solution count 10: 10880 10892 10912 ... 13788

Optimal solution found (tolerance 1.00e-04)
Best objective 1.088000000000e+04, best bound 1.088000000000e+04, gap 0.0000%

Gurobi 9.5.2 (mac64[arm]) logging started Wed Apr 19 20:31:42 2023

Set parameter LogFile to value "Java/output/iterative_model/scenario_seed_0_nJob_50_machineCount_1/mip_increment_1/log.txt"
Gurobi Optimizer version 9.5.2 build v9.5.2rc0 (mac64[arm])
Thread count: 8 physical cores, 8 logical processors, using up to 8 threads
Optimize a model with 3012 rows, 14349 columns and 172411 nonzeros
Model fingerprint: 0xe33043b9
Variable types: 0 continuous, 14349 integer (14349 binary)
Coefficient statistics:
  Matrix range     [1e+00, 5e+02]
  Objective range  [2e+02, 7e+05]
  Bounds range     [1e+00, 1e+00]
  RHS range        [1e+00, 1e+00]
Found heuristic solution: objective 2015351.0000
Presolve removed 1280 rows and 759 columns
Presolve time: 0.19s
Presolved: 1732 rows, 13590 columns, 161402 nonzeros
Variable types: 0 continuous, 13590 integer (13582 binary)
Found heuristic solution: objective 1380957.0000

Root relaxation: objective 4.823994e+03, 5804 iterations, 0.34 seconds (0.75 work units)

    Nodes    |    Current Node    |     Objective Bounds      |     Work
 Expl Unexpl |  Obj  Depth IntInf | Incumbent    BestBd   Gap | It/Node Time

     0     0 4823.99376    0  109 1380957.00 4823.99376   100%     -    0s
H    0     0                    506489.00000 4823.99376  99.0%     -    0s
H    0     0                    493037.00000 4823.99376  99.0%     -    0s
H    0     0                    489591.00000 4823.99376  99.0%     -    0s
H    0     0                    5309.0000000 4828.12539  9.06%     -    0s
H    0     0                    5300.0000000 4828.12539  8.90%     -    0s
     0     0 4828.23171    0  192 5300.00000 4828.23171  8.90%     -    1s
H    0     0                    5293.0000000 4828.23171  8.78%     -    1s
     0     0 4828.29806    0  197 5293.00000 4828.29806  8.78%     -    1s
     0     0 4830.05804    0  193 5293.00000 4830.05804  8.75%     -    1s
     0     0 4830.05804    0  113 5293.00000 4830.05804  8.75%     -    2s
H    0     0                    5291.0000000 4830.05804  8.71%     -    2s
H    0     0                    5125.0000000 4830.05804  5.75%     -    2s
     0     0 4830.05804    0  221 5125.00000 4830.05804  5.75%     -    2s
H    0     0                    5089.0000000 4830.05804  5.09%     -    2s
     0     0 4831.47079    0  195 5089.00000 4831.47079  5.06%     -    2s
     0     0 4831.53321    0  204 5089.00000 4831.53321  5.06%     -    2s
     0     0 4833.72672    0  197 5089.00000 4833.72672  5.02%     -    2s
H    0     0                    4989.0000000 4833.72672  3.11%     -    2s
     0     0 4833.82890    0  219 4989.00000 4833.82890  3.11%     -    2s
     0     0 4833.87316    0  222 4989.00000 4833.87316  3.11%     -    2s
     0     0 4833.87325    0  220 4989.00000 4833.87325  3.11%     -    2s
     0     0 4835.18908    0  325 4989.00000 4835.18908  3.08%     -    3s
H    0     0                    4976.0000000 4835.18908  2.83%     -    3s
     0     0 4836.10985    0  330 4976.00000 4836.10985  2.81%     -    3s
     0     0 4836.59518    0  344 4976.00000 4836.59518  2.80%     -    3s
     0     0 4836.65594    0  347 4976.00000 4836.65594  2.80%     -    3s
     0     0 4836.65691    0  346 4976.00000 4836.65691  2.80%     -    3s
H    0     0                    4967.0000000 4836.65691  2.62%     -    3s
     0     0 4837.87580    0  368 4967.00000 4837.87580  2.60%     -    3s
H    0     0                    4961.0000000 4837.87580  2.48%     -    3s
     0     0 4838.55104    0  386 4961.00000 4838.55104  2.47%     -    3s
     0     0 4838.72699    0  385 4961.00000 4838.72699  2.46%     -    3s
     0     0 4838.81120    0  416 4961.00000 4838.81120  2.46%     -    3s
     0     0 4838.83719    0  412 4961.00000 4838.83719  2.46%     -    3s
     0     0 4838.84837    0  409 4961.00000 4838.84837  2.46%     -    3s
     0     0 4838.85002    0  418 4961.00000 4838.85002  2.46%     -    3s
     0     0 4839.07552    0  418 4961.00000 4839.07552  2.46%     -    4s
H    0     0                    4930.0000000 4839.07552  1.84%     -    4s
     0     0 4839.12785    0  398 4930.00000 4839.12785  1.84%     -    4s
     0     0 4839.16033    0  401 4930.00000 4839.16033  1.84%     -    4s
     0     0 4839.16885    0  420 4930.00000 4839.16885  1.84%     -    4s
     0     0 4839.30713    0  434 4930.00000 4839.30713  1.84%     -    4s
H    0     0                    4928.0000000 4839.30713  1.80%     -    4s
     0     0 4839.34991    0  442 4928.00000 4839.34991  1.80%     -    4s
     0     0 4839.38893    0  460 4928.00000 4839.38893  1.80%     -    4s
     0     0 4839.39302    0  465 4928.00000 4839.39302  1.80%     -    4s
     0     0 4839.62260    0  429 4928.00000 4839.62260  1.79%     -    4s
     0     0 4839.76001    0  452 4928.00000 4839.76001  1.79%     -    4s
     0     0 4839.81021    0  452 4928.00000 4839.81021  1.79%     -    4s
     0     0 4839.82526    0  461 4928.00000 4839.82526  1.79%     -    4s
     0     0 4839.83320    0  473 4928.00000 4839.83320  1.79%     -    4s
     0     0 4840.03368    0  451 4928.00000 4840.03368  1.79%     -    5s
H    0     0                    4918.0000000 4840.03368  1.59%     -    5s
H    0     0                    4904.0000000 4840.03368  1.30%     -    5s
     0     0 4840.07165    0  455 4904.00000 4840.07165  1.30%     -    5s
     0     0 4840.09086    0  473 4904.00000 4840.09086  1.30%     -    5s
     0     0 4840.10021    0  494 4904.00000 4840.10021  1.30%     -    5s
     0     0 4840.18945    0  478 4904.00000 4840.18945  1.30%     -    5s
     0     0 4840.29375    0  493 4904.00000 4840.29375  1.30%     -    5s
     0     0 4840.30303    0  494 4904.00000 4840.30303  1.30%     -    5s
     0     0 4840.38936    0  506 4904.00000 4840.38936  1.30%     -    5s
H    0     0                    4898.0000000 4840.38936  1.18%     -    5s
     0     0 4840.41425    0  503 4898.00000 4840.41425  1.18%     -    5s
     0     0 4840.42779    0  503 4898.00000 4840.42779  1.18%     -    5s
     0     0 4840.42852    0  501 4898.00000 4840.42852  1.18%     -    5s
     0     0 4840.48552    0  499 4898.00000 4840.48552  1.17%     -    5s
     0     0 4840.48552    0  470 4898.00000 4840.48552  1.17%     -    5s
     0     2 4840.49935    0  466 4898.00000 4840.49935  1.17%     -    6s
H   31    40                    4886.0000000 4842.91954  0.88%  1600    8s
H   34    40                    4884.0000000 4842.91954  0.84%  1670    8s
H   36    40                    4876.0000000 4842.91954  0.68%  1687    8s
H   69    57                    4871.0000000 4843.87634  0.56%  1275   10s
H   70    57                    4865.0000000 4843.87634  0.43%  1266   10s
H  206   138                    4863.0000000 4844.79649  0.37%  1017   13s
   321   169     cutoff    9      4863.00000 4844.79649  0.37%   917   15s
   661   281 4852.36457   10  295 4863.00000 4845.60605  0.36%   826   20s
   972   391 4850.43354    8  309 4863.00000 4847.53181  0.32%   785   25s
  1431   516 4855.46997   11  331 4863.00000 4849.07408  0.29%   743   30s
  1948   691 4855.85345   13  284 4863.00000 4849.84171  0.27%   709   35s
  2558   855 4860.07362   12  366 4863.00000 4850.84879  0.25%   673   41s
  2891   955 4861.93448   17  182 4863.00000 4850.84879  0.25%   668   45s
  3407  1056 4861.40886   19  294 4863.00000 4851.95976  0.23%   671   51s
  3970  1124     cutoff   17      4863.00000 4852.54217  0.22%   663   56s
  4698  1227 4858.51721   17  337 4863.00000 4853.00510  0.21%   640   61s
  5178  1299     cutoff   25      4863.00000 4853.46071  0.20%   631   65s
  5944  1353 4862.32212   19  249 4863.00000 4854.34266  0.18%   619   71s
  6629  1371 4860.33770   15  236 4863.00000 4854.89765  0.17%   609   76s
  7285  1419 4859.36966   18  193 4863.00000 4855.13447  0.16%   606   81s
  7303  1431 4859.43706   19  495 4863.00000 4855.13447  0.16%   604   85s
  7306  1438 4855.13447   17  398 4863.00000 4855.13447  0.16%   607   90s
  7326  1451 4855.13447   20  374 4863.00000 4855.13447  0.16%   611   96s
  7383  1470 4860.84615   24   51 4863.00000 4855.13447  0.16%   617  100s
  7565  1475 4858.99488   22  358 4863.00000 4855.13447  0.16%   619  105s
  7767  1461     cutoff   27      4863.00000 4855.13447  0.16%   622  110s
  8085  1455 4862.68400   26  364 4863.00000 4855.13447  0.16%   626  115s
  8375  1403 4855.13447   29  445 4863.00000 4855.13447  0.16%   626  120s
  8812  1341 4862.57526   33  275 4863.00000 4855.13447  0.16%   630  125s
  9202  1261 4860.46646   33  377 4863.00000 4855.13447  0.16%   632  130s
  9567  1155 4858.75059   39  356 4863.00000 4855.13447  0.16%   633  135s
  9893  1059 4858.15763   29  484 4863.00000 4856.26215  0.14%   635  140s
 10283   915     cutoff   29      4863.00000 4857.07648  0.12%   639  145s
 10747   714     cutoff   38      4863.00000 4858.38775  0.09%   637  151s
 11176   366     cutoff   31      4863.00000 4859.45197  0.07%   635  156s

Cutting planes:
  Gomory: 10
  Cover: 58
  Clique: 203
  MIR: 240
  StrongCG: 156
  Flow cover: 55
  GUB cover: 75
  Inf proof: 5
  Zero half: 31
  Mod-K: 2
  RLT: 2

Explored 11905 nodes (7430864 simplex iterations) in 158.45 seconds (536.79 work units)
Thread count was 8 (of 8 available processors)

Solution count 10: 4863 4865 4871 ... 4928

Optimal solution found (tolerance 1.00e-04)
Best objective 4.863000000000e+03, best bound 4.863000000000e+03, gap 0.0000%

Gurobi 9.5.2 (mac64[arm]) logging started Wed Apr 19 20:34:21 2023

Set parameter LogFile to value "Java/output/iterative_model/scenario_seed_0_nJob_50_machineCount_1/mip_increment_1/log.txt"
Gurobi Optimizer version 9.5.2 build v9.5.2rc0 (mac64[arm])
Thread count: 8 physical cores, 8 logical processors, using up to 8 threads
Optimize a model with 3178 rows, 73200 columns and 909473 nonzeros
Model fingerprint: 0x185c259e
Variable types: 0 continuous, 73200 integer (73200 binary)
Coefficient statistics:
  Matrix range     [1e+00, 5e+02]
  Objective range  [1e+00, 2e+07]
  Bounds range     [1e+00, 1e+00]
  RHS range        [1e+00, 1e+00]

Warning: Completing partial solution with 73050 unfixed non-continuous variables out of 73200
User MIP start produced solution with objective 34555 (0.06s)
Loaded user MIP start with objective 34555

Presolve removed 17 rows and 3647 columns
Presolve time: 0.90s
Presolved: 3161 rows, 69553 columns, 853376 nonzeros
Variable types: 0 continuous, 69553 integer (69525 binary)
Found heuristic solution: objective 34499.000000
Warning: Markowitz tolerance tightened to 0.03125

Root simplex log...

Iteration    Objective       Primal Inf.    Dual Inf.      Time
   26041    2.9010528e+04   1.695161e+06   0.000000e+00      5s
   47815    3.2049208e+04   3.510327e+04   0.000000e+00     10s
   58943    3.2357476e+04   0.000000e+00   0.000000e+00     14s

Root relaxation: objective 3.235748e+04, 58943 iterations, 12.50 seconds (32.86 work units)

    Nodes    |    Current Node    |     Objective Bounds      |     Work
 Expl Unexpl |  Obj  Depth IntInf | Incumbent    BestBd   Gap | It/Node Time

     0     0 32357.4762    0  396 34499.0000 32357.4762  6.21%     -   14s
H    0     0                    34275.000000 32357.4762  5.59%     -   14s
     0     0 32394.1136    0  665 34275.0000 32394.1136  5.49%     -   18s
     0     0 32394.1136    0  482 34275.0000 32394.1136  5.49%     -   29s
H    0     0                    34265.000000 32394.1136  5.46%     -   29s
     0     0 32405.2000    0  776 34265.0000 32405.2000  5.43%     -   33s
H    0     0                    34196.000000 32405.2000  5.24%     -   34s
     0     0 32409.4626    0  749 34196.0000 32409.4626  5.22%     -   35s
     0     0 32409.5954    0  765 34196.0000 32409.5954  5.22%     -   35s
     0     0 32409.5954    0  763 34196.0000 32409.5954  5.22%     -   35s
     0     0 32425.1557    0  806 34196.0000 32425.1557  5.18%     -   38s
     0     0 32453.4012    0  969 34196.0000 32453.4012  5.10%     -   44s
     0     0 32460.6377    0  963 34196.0000 32460.6377  5.07%     -   47s
     0     0 32462.8275    0  917 34196.0000 32462.8275  5.07%     -   48s
     0     0 32464.5784    0  973 34196.0000 32464.5784  5.06%     -   49s
     0     0 32465.4615    0  988 34196.0000 32465.4615  5.06%     -   50s
     0     0 32465.5107    0  976 34196.0000 32465.5107  5.06%     -   50s
     0     0 32465.5483    0  996 34196.0000 32465.5483  5.06%     -   50s
     0     0 32465.5571    0  996 34196.0000 32465.5571  5.06%     -   50s
     0     0 32485.4804    0 1021 34196.0000 32485.4804  5.00%     -   55s
     0     0 32499.1849    0 1059 34196.0000 32499.1849  4.96%     -   59s
     0     0 32508.3047    0 1068 34196.0000 32508.3047  4.94%     -   62s
     0     0 32509.0400    0 1067 34196.0000 32509.0400  4.93%     -   63s
     0     0 32509.2088    0 1069 34196.0000 32509.2088  4.93%     -   63s
     0     0 32509.2367    0 1073 34196.0000 32509.2367  4.93%     -   63s
     0     0          -    0      34196.0000 32509.2367  4.93%     -   69s

Cutting planes:
  Cover: 1
  Clique: 225
  MIR: 60
  StrongCG: 35
  GUB cover: 112
  Zero half: 7
  RLT: 2

Explored 1 nodes (248345 simplex iterations) in 69.01 seconds (183.67 work units)
Thread count was 8 (of 8 available processors)

Solution count 5: 34196 34265 34275 ... 34555

Time limit reached
Best objective 3.419600000000e+04, best bound 3.251000000000e+04, gap 4.9304%
